-1 40 95 17 12 70 10 83 67 
40 -1 59 11 42 99 7 74 65 
95 59 -1 33 49 78 24 28 63 
17 11 33 -1 62 61 47 95 3 
12 42 49 62 -1 9 76 8 95 
70 99 78 61 9 -1 86 5 97 
10 7 24 47 76 86 -1 33 55 
83 74 28 95 8 5 33 -1 10 
67 65 63 3 95 97 55 10 -1 
